*HEADING
SHPB avec inverseur de charge (LID) -- eprouvette __SPEC__ -- calcul __CASE_ID__
**
** ==========================================================================
** SHPB_UT_main.inp -- MODELE PRINCIPAL (gabarit)
** ==========================================================================
** Ce fichier est un GABARIT : scripts/pre/ le copie dans runs/<case_id>/ en
** remplacant deux jetons (mots entoures de deux soulignes "__") :
**     SPEC     -> nom de l'eprouvette   (UT19 ou UT40)
**     CASE_ID  -> nom du calcul         (ex. UT19_R0500_00)
** Tous les fichiers inclus (*.geo, *.dat) sont copies a cote du .inp :
** les *INCLUDE n'ont donc pas de chemin.
**
** Unites : mm, N, s, MPa, t/mm^3
** Demi-modele : symetrie par rapport au plan X = 0
**
** ==========================================================================
** 0. PARAMETRES  (*PARAMETER, fichier propre a chaque calcul)
** ==========================================================================
** Les valeurs qui changent d'un calcul a l'autre sont dans <case_id>_paras.inp.
** Dans ce fichier, on les utilise entre chevrons : <V_STRIKER>.
** Ce *INCLUDE doit rester AVANT toute utilisation d'un parametre.
**
*INCLUDE, INPUT=__CASE_ID___paras.inp
**
** ==========================================================================
** 1. MAILLAGE  (un .geo par piece, genere par scripts/pre/inp_to_geo.py)
** ==========================================================================
** Noeuds et elements sont deja en coordonnees globales.
** Labels : piece n -> n*1 000 000 + ...  (STRIKER 1M, INPUT_BAR 2M, ...)
**
*INCLUDE, INPUT=STRIKER.geo
*INCLUDE, INPUT=INPUT_BAR.geo
*INCLUDE, INPUT=PUSHER_ROD.geo
*INCLUDE, INPUT=PUSHER_HEAD.geo
*INCLUDE, INPUT=__SPEC__.geo
*INCLUDE, INPUT=OUTPUT_BAR.geo
*INCLUDE, INPUT=OUTPUT_HEAD.geo
**
** ==========================================================================
** 2. MATERIAUX  (generes par scripts/pre/make_materials.py)
** ==========================================================================
*MATERIAL, NAME=MARAGING
*INCLUDE, INPUT=MARAGING.dat
*MATERIAL, NAME=STRIKER_STEEL
*INCLUDE, INPUT=STRIKER_STEEL.dat
*MATERIAL, NAME=DP1000
*INCLUDE, INPUT=DP1000.dat
**
** ==========================================================================
** 3. SECTIONS  (affectation d'un materiau a chaque piece)
** ==========================================================================
** Barres, pusher et tetes : maraging (Beerli et al. 2026)
*SOLID SECTION, ELSET=INPUT_BAR_ALL, MATERIAL=MARAGING
,
*SOLID SECTION, ELSET=PUSHER_ROD_ALL, MATERIAL=MARAGING
,
*SOLID SECTION, ELSET=PUSHER_HEAD_ALL, MATERIAL=MARAGING
,
*SOLID SECTION, ELSET=OUTPUT_BAR_ALL, MATERIAL=MARAGING
,
*SOLID SECTION, ELSET=OUTPUT_HEAD_ALL, MATERIAL=MARAGING
,
** Striker : acier (c = 4720 m/s mesuree)
*SOLID SECTION, ELSET=STRIKER_ALL, MATERIAL=STRIKER_STEEL
,
** Eprouvette
*SOLID SECTION, ELSET=__SPEC___ALL, MATERIAL=DP1000
,
**
** ==========================================================================
** 4. LIAISONS (ties)
** ==========================================================================
** Le pusher et la barre de sortie ont ete coupes en deux dans build_bench.py
** (partie ronde en hexaedres, tete en tetraedres). On recolle les deux moities
** sur leur plan de coupe : tous les deplacements sont transmis, comme si la
** piece etait d'un seul bloc.
**
** Ligne de donnees : surface SECONDAIRE, surface PRINCIPALE.
** Secondaire = maillage le plus fin (ici la tete en tetraedres de 2 mm) :
** ses noeuds sont attaches aux facettes de la surface principale.
**   ADJUST=YES             : les noeuds secondaires sont ramenes sur la surface
**                            principale au debut du calcul (ecart < 0,05 mm ici,
**                            du aux cordes du maillage sur les bords courbes)
**   POSITION TOLERANCE=0.2 : on ne lie que les noeuds secondaires a moins de
**                            0,2 mm de la surface principale (la couche de
**                            noeuds suivante est a ~1 mm : elle n'est pas prise)
**
** Pusher, coupe en Y = 125
*TIE, NAME=TIE_PUSHER, ADJUST=YES, POSITION TOLERANCE=0.2
PUSHER_HEAD_S_TIE, PUSHER_ROD_S_TIE
** Barre de sortie, coupe en Y = 100
*TIE, NAME=TIE_OUTPUT, ADJUST=YES, POSITION TOLERANCE=0.2
OUTPUT_HEAD_S_TIE, OUTPUT_BAR_S_TIE
**
** ==========================================================================
** 5. PROPRIETES DE CONTACT
** ==========================================================================
** En Abaqus/Explicit, les PROPRIETES de contact sont des donnees du modele
** (ici), mais la DEFINITION du contact (*CONTACT) se fait dans le step :
** voir section 7.
**
** Contact lisse (sans frottement) : chocs bout a bout des barres
*SURFACE INTERACTION, NAME=IP_LISSE
*FRICTION
0.,
** Contact avec frottement : dents de l'eprouvette dans les logements
** (coefficient 0,2 : Roth et al. 2015)
*SURFACE INTERACTION, NAME=IP_FROTT
*FRICTION
0.2,
** Comportement normal : contact "dur" (pas de penetration), valeur par
** defaut d'Abaqus/Explicit, donc pas de *SURFACE BEHAVIOR a ecrire.
**
** ==========================================================================
** 6. CONDITIONS AUX LIMITES ET VITESSE INITIALE
** ==========================================================================
** --- 6a. Symetrie : plan X = 0 (demi-modele) -------------------------------
** XSYMM bloque U1 (deplacement normal au plan) ; les rotations n'existent pas
** pour les elements volumiques. Aucune autre condition : sur le banc, les
** barres glissent librement dans leurs paliers et l'eprouvette est posee.
*BOUNDARY
STRIKER_XSYMM, XSYMM
INPUT_BAR_XSYMM, XSYMM
PUSHER_ROD_XSYMM, XSYMM
PUSHER_HEAD_XSYMM, XSYMM
__SPEC___XSYMM, XSYMM
OUTPUT_BAR_XSYMM, XSYMM
OUTPUT_HEAD_XSYMM, XSYMM
**
** --- 6b. Vitesse initiale du striker ---------------------------------------
** Le striker (Y de -11010 a -6010) avance vers la barre d'entree : vitesse
** selon +Y (degre de liberte 2), en mm/s. Toutes les autres pieces sont au repos.
*INITIAL CONDITIONS, TYPE=VELOCITY
STRIKER_NALL, 2, <V_STRIKER>
**
** ==========================================================================
** 7. SECTIONS DE MESURE DE FORCE  (donnees du modele, avant le step)
** ==========================================================================
** Une "integrated output section" somme les efforts a travers une surface :
** la sortie SOF (section force) donne la force totale qui traverse la section.
** SEC_OUT = debut de la partie droite cote barre de sortie (Y = 155,357)
** SEC_IN  = fin de la partie droite cote pusher           (Y = 170,357)
** Equilibre quasi statique  <=>  SOF2(SEC_IN) = SOF2(SEC_OUT)
** (demi-modele : force reelle = 2 x SOF2)
*INTEGRATED OUTPUT SECTION, NAME=SECTION_IN, SURFACE=__SPEC___SEC_IN
*INTEGRATED OUTPUT SECTION, NAME=SECTION_OUT, SURFACE=__SPEC___SEC_OUT
**
** ==========================================================================
** 8. STEP DYNAMIC EXPLICIT
** ==========================================================================
** Pas de mass scaling : il changerait la vitesse des ondes dans les barres,
** c'est-a-dire exactement ce que l'on veut mesurer.
** Duree <T_STEP> : voir le fichier _paras.inp.
*STEP, NAME=IMPACT, NLGEOM=YES
*DYNAMIC, EXPLICIT
, <T_STEP>
**
** --- 8a. Contacts (contact general, limite aux paires listees) -----------
** *CONTACT INCLUSIONS : seules ces paires de surfaces sont testees
** (sans l'option ALL EXTERIOR, Abaqus ne cherche pas d'autres contacts).
** *CONTACT PROPERTY ASSIGNMENT : 1re ligne vide = propriete par defaut
** pour toutes les paires, puis les exceptions.
** L'eprouvette est simplement posee dans les logements (rien ne la maintient
** par-dessus sur le vrai banc) : pas de condition en Z, comme en realite.
*CONTACT, OP=NEW
*CONTACT INCLUSIONS
STRIKER_S_IMPACT, INPUT_BAR_S_IMPACT
INPUT_BAR_S_PUSH, PUSHER_ROD_S_PUSH
__SPEC___S_SKIN, PUSHER_HEAD_S_SKIN
__SPEC___S_SKIN, OUTPUT_HEAD_S_SKIN
*CONTACT PROPERTY ASSIGNMENT
 ,  , IP_LISSE
__SPEC___S_SKIN, PUSHER_HEAD_S_SKIN, IP_FROTT
__SPEC___S_SKIN, OUTPUT_HEAD_S_SKIN, IP_FROTT
**
** --- 8b. Sorties "champ" (.odb, pour les images et animations) ----------
** Sorties ciblees, comme dans le tuto du labo : un champ complet sur tout le
** banc a chaque image ferait un .odb de plusieurs Go.
**   - eprouvette : beaucoup d'images, contraintes et deformations
**   - banc entier : peu d'images, juste pour voir passer les ondes
*OUTPUT, FIELD, NUMBER INTERVAL=<N_FRAMES_SPEC>
*ELEMENT OUTPUT, ELSET=__SPEC___ALL
S, LE, PEEQ
*NODE OUTPUT, NSET=__SPEC___NALL
U, V
*OUTPUT, FIELD, NUMBER INTERVAL=<N_FRAMES_ALL>
*NODE OUTPUT
U
*ELEMENT OUTPUT
S
**
** --- 8c. Sorties "historique" (courbes en fonction du temps) -------------
** Un point toutes les <DT_HIST> secondes.
*OUTPUT, HISTORY, TIME INTERVAL=<DT_HIST>
** Jauges virtuelles : deformation axiale (Y = direction 2) des elements de jauge
*ELEMENT OUTPUT, ELSET=INPUT_BAR_GAUGE_IN
LE22, S22
*ELEMENT OUTPUT, ELSET=OUTPUT_BAR_GAUGE_OUT
LE22, S22
** Forces a travers les deux sections de l'eprouvette (equilibre)
*INTEGRATED OUTPUT, SECTION=SECTION_IN
SOF
*INTEGRATED OUTPUT, SECTION=SECTION_OUT
SOF
** Extensometre virtuel (12 mm) : allongement = U2(EXT_IN) - U2(EXT_OUT)
*NODE OUTPUT, NSET=__SPEC___EXT_IN
U2
*NODE OUTPUT, NSET=__SPEC___EXT_OUT
U2
** Energies du modele entier (controle de la qualite du calcul) :
** ALLAE (energie d'hourglass) doit rester petite devant ALLIE
*ENERGY OUTPUT
ALLKE, ALLIE, ALLAE, ALLWK, ALLFD, ETOTAL
**
*END STEP
